\ Model OO_assignment_model
\ LP format - for model browsing. Use MPS format to capture full model detail.
Maximize
  2.400869565217391 x_0_0 + 1.237391304347826 x_0_1
   + 2.153913043478261 x_0_2 + 2.362608695652174 x_0_3
   + 2.324347826086957 x_0_4 + 2.404347826086957 x_0_5
   + 1.967826086956522 x_0_6 + 1.837391304347826 x_0_7
   + 1.842608695652174 x_0_8 + 2.366086956521739 x_0_9
   + 1.633620689655172 x_1_0 + 2.431034482758621 x_1_1
   + 1.327586206896552 x_1_2 + 1.586206896551724 x_1_3
   + 1.538793103448276 x_1_4 + 1.637931034482759 x_1_5
   + 1.09698275862069 x_1_6 + 0.9353448275862069 x_1_7
   + 0.9418103448275862 x_1_8 + 1.59051724137931 x_1_9
   + 2.555462184873949 x_2_0 + 1.357983193277311 x_2_1
   + 2.257142857142857 x_2_2 + 2.509243697478992 x_2_3
   + 2.463025210084034 x_2_4 + 2.559663865546218 x_2_5
   + 2.03235294117647 x_2_6 + 1.874789915966387 x_2_7
   + 1.88109243697479 x_2_8 + 2.51344537815126 x_2_9
   + 2.699103139013453 x_3_0 + 1.558594917787743 x_3_1
   + 2.486846038863976 x_3_2 + 2.666218236173393 x_3_3
   + 2.633333333333333 x_3_4 + 2.702092675635276 x_3_5
   + 2.326905829596412 x_3_6 + 2.214798206278027 x_3_7
   + 2.219282511210762 x_3_8 + 2.669207772795216 x_3_9
   + 2.152788104089219 x_4_0 + 2.978066914498141 x_4_1
   + 1.888847583643123 x_4_2 + 2.111895910780669 x_4_3
   + 2.071003717472119 x_4_4 + 2.156505576208178 x_4_5
   + 1.68996282527881 x_4_6 + 1.550557620817844 x_4_7
   + 1.556133828996282 x_4_8 + 2.115613382899628 x_4_9
   + 2.314537444933921 x_5_0 + 1.107488986784141 x_5_1
   + 2.001762114537445 x_5_2 + 2.266079295154185 x_5_3
   + 2.21762114537445 x_5_4 + 2.318942731277533 x_5_5
   + 1.766079295154185 x_5_6 + 1.600881057268723 x_5_7
   + 1.607488986784141 x_5_8 + 2.270484581497798 x_5_9
   + 2.980858676207514 x_6_0 + 1.812701252236136 x_6_1
   + 2.726833631484794 x_6_2 + 2.941502683363149 x_6_3
   + 2.902146690518784 x_6_4 + 2.984436493738819 x_6_5
   + 2.535420393559928 x_6_6 + 2.401252236135957 x_6_7
   + 2.406618962432916 x_6_8 + 2.945080500894455 x_6_9
   + 2.217391304347826 x_7_0 + 3.081159420289855 x_7_1
   + 2.011594202898551 x_7_2 + 2.185507246376812 x_7_3
   + 2.153623188405797 x_7_4 + 2.220289855072464 x_7_5
   + 1.856521739130435 x_7_6 + 1.747826086956522 x_7_7
   + 1.752173913043478 x_7_8 + 2.188405797101449 x_7_9
   + 3.423242467718795 x_8_0 + 2.288378766140603 x_8_1
   + 3.219512195121951 x_8_2 + 3.39167862266858 x_8_3
   + 3.360114777618365 x_8_4 + 3.426111908177905 x_8_5
   + 3.065997130559541 x_8_6 + 2.958393113342898 x_8_7
   + 2.962697274031564 x_8_8 + 3.39454806312769 x_8_9
   + 2.994578313253012 x_9_0 + 1.853012048192771 x_9_1
   + 2.780722891566265 x_9_2 + 2.96144578313253 x_9_3
   + 2.928313253012048 x_9_4 + 2.997590361445783 x_9_5
   + 2.619578313253012 x_9_6 + 2.506626506024097 x_9_7
   + 2.511144578313253 x_9_8 + 2.964457831325301 x_9_9
Subject To
 C_demand_0: x_0_0 + x_0_1 + x_0_2 + x_0_3 + x_0_4 + x_0_5 + x_0_6 + x_0_7
   + x_0_8 + x_0_9 <= 1
 C_demand_1: x_1_0 + x_1_1 + x_1_2 + x_1_3 + x_1_4 + x_1_5 + x_1_6 + x_1_7
   + x_1_8 + x_1_9 <= 1
 C_demand_2: x_2_0 + x_2_1 + x_2_2 + x_2_3 + x_2_4 + x_2_5 + x_2_6 + x_2_7
   + x_2_8 + x_2_9 <= 1
 C_demand_3: x_3_0 + x_3_1 + x_3_2 + x_3_3 + x_3_4 + x_3_5 + x_3_6 + x_3_7
   + x_3_8 + x_3_9 <= 1
 C_demand_4: x_4_0 + x_4_1 + x_4_2 + x_4_3 + x_4_4 + x_4_5 + x_4_6 + x_4_7
   + x_4_8 + x_4_9 <= 1
 C_demand_5: x_5_0 + x_5_1 + x_5_2 + x_5_3 + x_5_4 + x_5_5 + x_5_6 + x_5_7
   + x_5_8 + x_5_9 <= 1
 C_demand_6: x_6_0 + x_6_1 + x_6_2 + x_6_3 + x_6_4 + x_6_5 + x_6_6 + x_6_7
   + x_6_8 + x_6_9 <= 1
 C_demand_7: x_7_0 + x_7_1 + x_7_2 + x_7_3 + x_7_4 + x_7_5 + x_7_6 + x_7_7
   + x_7_8 + x_7_9 <= 1
 C_demand_8: x_8_0 + x_8_1 + x_8_2 + x_8_3 + x_8_4 + x_8_5 + x_8_6 + x_8_7
   + x_8_8 + x_8_9 <= 1
 C_demand_9: x_9_0 + x_9_1 + x_9_2 + x_9_3 + x_9_4 + x_9_5 + x_9_6 + x_9_7
   + x_9_8 + x_9_9 <= 1
 C_supply_0: x_0_0 + x_1_0 + x_2_0 + x_3_0 + x_4_0 + x_5_0 + x_6_0 + x_7_0
   + x_8_0 + x_9_0 <= 3
 C_supply_1: x_0_1 + x_1_1 + x_2_1 + x_3_1 + x_4_1 + x_5_1 + x_6_1 + x_7_1
   + x_8_1 + x_9_1 <= 1
 C_supply_2: x_0_2 + x_1_2 + x_2_2 + x_3_2 + x_4_2 + x_5_2 + x_6_2 + x_7_2
   + x_8_2 + x_9_2 <= 2
 C_supply_3: x_0_3 + x_1_3 + x_2_3 + x_3_3 + x_4_3 + x_5_3 + x_6_3 + x_7_3
   + x_8_3 + x_9_3 <= 3
 C_supply_4: x_0_4 + x_1_4 + x_2_4 + x_3_4 + x_4_4 + x_5_4 + x_6_4 + x_7_4
   + x_8_4 + x_9_4 <= 2
 C_supply_5: x_0_5 + x_1_5 + x_2_5 + x_3_5 + x_4_5 + x_5_5 + x_6_5 + x_7_5
   + x_8_5 + x_9_5 <= 3
 C_supply_6: x_0_6 + x_1_6 + x_2_6 + x_3_6 + x_4_6 + x_5_6 + x_6_6 + x_7_6
   + x_8_6 + x_9_6 <= 3
 C_supply_7: x_0_7 + x_1_7 + x_2_7 + x_3_7 + x_4_7 + x_5_7 + x_6_7 + x_7_7
   + x_8_7 + x_9_7 <= 2
 C_supply_8: x_0_8 + x_1_8 + x_2_8 + x_3_8 + x_4_8 + x_5_8 + x_6_8 + x_7_8
   + x_8_8 + x_9_8 <= 3
 C_supply_9: x_0_9 + x_1_9 + x_2_9 + x_3_9 + x_4_9 + x_5_9 + x_6_9 + x_7_9
   + x_8_9 + x_9_9 <= 2
 C_gs_0: x_0_0 + x_1_0 + x_2_0 + x_3_0 + x_5_0 + x_8_0 >= 2
 C_gs_1: x_0_1 + x_1_1 + x_2_1 + x_3_1 + x_5_1 + x_8_1 >= 2
 C_gs_2: x_0_2 + x_1_2 + x_2_2 + x_3_2 + x_5_2 + x_8_2 >= 2
 C_gs_3: x_0_3 + x_1_3 + x_2_3 + x_3_3 + x_5_3 + x_8_3 >= 2
 C_gs_4: x_0_4 + x_1_4 + x_2_4 + x_3_4 + x_5_4 + x_8_4 >= 2
 C_gs_5: x_0_5 + x_1_5 + x_2_5 + x_3_5 + x_5_5 + x_8_5 >= 2
 C_gs_6: x_0_6 + x_1_6 + x_2_6 + x_3_6 + x_5_6 + x_8_6 >= 2
 C_gs_7: x_0_7 + x_1_7 + x_2_7 + x_3_7 + x_5_7 + x_8_7 >= 2
 C_gs_8: x_0_8 + x_1_8 + x_2_8 + x_3_8 + x_5_8 + x_8_8 >= 2
 C_gs_9: x_0_9 + x_1_9 + x_2_9 + x_3_9 + x_5_9 + x_8_9 >= 2
 fyp: = 0
Bounds
Binaries
 x_0_0 x_0_1 x_0_2 x_0_3 x_0_4 x_0_5 x_0_6 x_0_7 x_0_8 x_0_9 x_1_0 x_1_1
 x_1_2 x_1_3 x_1_4 x_1_5 x_1_6 x_1_7 x_1_8 x_1_9 x_2_0 x_2_1 x_2_2 x_2_3
 x_2_4 x_2_5 x_2_6 x_2_7 x_2_8 x_2_9 x_3_0 x_3_1 x_3_2 x_3_3 x_3_4 x_3_5
 x_3_6 x_3_7 x_3_8 x_3_9 x_4_0 x_4_1 x_4_2 x_4_3 x_4_4 x_4_5 x_4_6 x_4_7
 x_4_8 x_4_9 x_5_0 x_5_1 x_5_2 x_5_3 x_5_4 x_5_5 x_5_6 x_5_7 x_5_8 x_5_9
 x_6_0 x_6_1 x_6_2 x_6_3 x_6_4 x_6_5 x_6_6 x_6_7 x_6_8 x_6_9 x_7_0 x_7_1
 x_7_2 x_7_3 x_7_4 x_7_5 x_7_6 x_7_7 x_7_8 x_7_9 x_8_0 x_8_1 x_8_2 x_8_3
 x_8_4 x_8_5 x_8_6 x_8_7 x_8_8 x_8_9 x_9_0 x_9_1 x_9_2 x_9_3 x_9_4 x_9_5
 x_9_6 x_9_7 x_9_8 x_9_9
End
